# Objective value = 45
WA1n 0
WA1p 0
WA2n 1
WA2p 0
WB1n 0
WB1p 0
WB2n 1
WB2p 0
WC1n 0
WC1p 0
WC2n 0
WC2p 1
WD1n 1
WD1p 0
WD2n 1
WD2p 0
WE1n 2
WE1p 0
WF1n 2
WF1p 0
WG1n 0
WG1p 2
WH1n 7
WH1p 0
WH2n 1
WH2p 0
WI1n 7
WI1p 0
WI2n 1
WI2p 0
WJ1n 0
WJ1p 7
WJ2n 0
WJ2p 1
WT1n 0
WT1p 3
5 7
a 0
b 0
c 0
d 0
e 0
f 1
g 0
h 0
i 0
j 0
k 1
l 0
m 0
n 0
o 0
p 1
q 1
r 1
